15	10	6				
0	1	J1				
1	2	J1				
3	4	J2				
4	5	J2				
6	7	J3				
7	8	J3				
9	10	J4				
10	11	J4				
12	13	J5				
13	14	J5				
3	0	147	1	123	2	145
2	3	140	1	130		
2	3	150	4	160		
2	0	214	2	150		
2	2	87	1	66		
2	4	178	5	95		
2	0	87	1	62		
2	2	180	3	105		
3	3	190	4	100	5	153
2	0	87	1	65		
1	4	173				
2	3	145	5	136		
3	1	123	2	145	0	128
3	2	86	3	65	4	47
2	4	110	5	85		
0	29	57	25	37	28
29	0	52	49	51	62
57	52	0	45	34	27
25	49	45	0	52	22
37	51	34	52	0	45
28	62	27	22	45	0
